c description: Tseitin formula on , with even charge
c generator: CNFgen (0.9.0)
c copyright: (C) 2012-2020 Massimo Lauria <massimo.lauria@uniroma1.it>
c url: https://massimolauria.net/cnfgen
c
p cnf 40 432
1 2 3 -4 0
1 2 -3 4 0
1 -2 3 4 0
1 -2 -3 -4 0
-1 2 3 4 0
-1 2 -3 -4 0
-1 -2 3 -4 0
-1 -2 -3 4 0
1 5 6 7 -8 0
1 5 6 -7 8 0
1 5 -6 7 8 0
1 5 -6 -7 -8 0
1 -5 6 7 8 0
1 -5 6 -7 -8 0
1 -5 -6 7 -8 0
1 -5 -6 -7 8 0
-1 5 6 7 8 0
-1 5 6 -7 -8 0
-1 5 -6 7 -8 0
-1 5 -6 -7 8 0
-1 -5 6 7 -8 0
-1 -5 6 -7 8 0
-1 -5 -6 7 8 0
-1 -5 -6 -7 -8 0
9 10 11 12 13 -14 0
9 10 11 12 -13 14 0
9 10 11 -12 13 14 0
9 10 11 -12 -13 -14 0
9 10 -11 12 13 14 0
9 10 -11 12 -13 -14 0
9 10 -11 -12 13 -14 0
9 10 -11 -12 -13 14 0
9 -10 11 12 13 14 0
9 -10 11 12 -13 -14 0
9 -10 11 -12 13 -14 0
9 -10 11 -12 -13 14 0
9 -10 -11 12 13 -14 0
9 -10 -11 12 -13 14 0
9 -10 -11 -12 13 14 0
9 -10 -11 -12 -13 -14 0
-9 10 11 12 13 14 0
-9 10 11 12 -13 -14 0
-9 10 11 -12 13 -14 0
-9 10 11 -12 -13 14 0
-9 10 -11 12 13 -14 0
-9 10 -11 12 -13 14 0
-9 10 -11 -12 13 14 0
-9 10 -11 -12 -13 -14 0
-9 -10 11 12 13 -14 0
-9 -10 11 12 -13 14 0
-9 -10 11 -12 13 14 0
-9 -10 11 -12 -13 -14 0
-9 -10 -11 12 13 14 0
-9 -10 -11 12 -13 -14 0
-9 -10 -11 -12 13 -14 0
-9 -10 -11 -12 -13 14 0
15 16 -17 0
15 -16 17 0
-15 16 17 0
-15 -16 -17 0
2 15 18 19 -20 0
2 15 18 -19 20 0
2 15 -18 19 20 0
2 15 -18 -19 -20 0
2 -15 18 19 20 0
2 -15 18 -19 -20 0
2 -15 -18 19 -20 0
2 -15 -18 -19 20 0
-2 15 18 19 20 0
-2 15 18 -19 -20 0
-2 15 -18 19 -20 0
-2 15 -18 -19 20 0
-2 -15 18 19 -20 0
-2 -15 18 -19 20 0
-2 -15 -18 19 20 0
-2 -15 -18 -19 -20 0
21 22 -23 0
21 -22 23 0
-21 22 23 0
-21 -22 -23 0
24 25 -26 0
24 -25 26 0
-24 25 26 0
-24 -25 -26 0
9 18 24 -27 0
9 18 -24 27 0
9 -18 24 27 0
9 -18 -24 -27 0
-9 18 24 27 0
-9 18 -24 -27 0
-9 -18 24 -27 0
-9 -18 -24 27 0
21 28 29 30 -31 0
21 28 29 -30 31 0
21 28 -29 30 31 0
21 28 -29 -30 -31 0
21 -28 29 30 31 0
21 -28 29 -30 -31 0
21 -28 -29 30 -31 0
21 -28 -29 -30 31 0
-21 28 29 30 31 0
-21 28 29 -30 -31 0
-21 28 -29 30 -31 0
-21 28 -29 -30 31 0
-21 -28 29 30 -31 0
-21 -28 29 -30 31 0
-21 -28 -29 30 31 0
-21 -28 -29 -30 -31 0
16 -28 0
-16 28 0
10 29 32 -33 0
10 29 -32 33 0
10 -29 32 33 0
10 -29 -32 -33 0
-10 29 32 33 0
-10 29 -32 -33 0
-10 -29 32 -33 0
-10 -29 -32 33 0
5 34 35 -36 0
5 34 -35 36 0
5 -34 35 36 0
5 -34 -35 -36 0
-5 34 35 36 0
-5 34 -35 -36 0
-5 -34 35 -36 0
-5 -34 -35 36 0
3 11 22 25 32 34 37 38 -39 0
3 11 22 25 32 34 37 -38 39 0
3 11 22 25 32 34 -37 38 39 0
3 11 22 25 32 34 -37 -38 -39 0
3 11 22 25 32 -34 37 38 39 0
3 11 22 25 32 -34 37 -38 -39 0
3 11 22 25 32 -34 -37 38 -39 0
3 11 22 25 32 -34 -37 -38 39 0
3 11 22 25 -32 34 37 38 39 0
3 11 22 25 -32 34 37 -38 -39 0
3 11 22 25 -32 34 -37 38 -39 0
3 11 22 25 -32 34 -37 -38 39 0
3 11 22 25 -32 -34 37 38 -39 0
3 11 22 25 -32 -34 37 -38 39 0
3 11 22 25 -32 -34 -37 38 39 0
3 11 22 25 -32 -34 -37 -38 -39 0
3 11 22 -25 32 34 37 38 39 0
3 11 22 -25 32 34 37 -38 -39 0
3 11 22 -25 32 34 -37 38 -39 0
3 11 22 -25 32 34 -37 -38 39 0
3 11 22 -25 32 -34 37 38 -39 0
3 11 22 -25 32 -34 37 -38 39 0
3 11 22 -25 32 -34 -37 38 39 0
3 11 22 -25 32 -34 -37 -38 -39 0
3 11 22 -25 -32 34 37 38 -39 0
3 11 22 -25 -32 34 37 -38 39 0
3 11 22 -25 -32 34 -37 38 39 0
3 11 22 -25 -32 34 -37 -38 -39 0
3 11 22 -25 -32 -34 37 38 39 0
3 11 22 -25 -32 -34 37 -38 -39 0
3 11 22 -25 -32 -34 -37 38 -39 0
3 11 22 -25 -32 -34 -37 -38 39 0
3 11 -22 25 32 34 37 38 39 0
3 11 -22 25 32 34 37 -38 -39 0
3 11 -22 25 32 34 -37 38 -39 0
3 11 -22 25 32 34 -37 -38 39 0
3 11 -22 25 32 -34 37 38 -39 0
3 11 -22 25 32 -34 37 -38 39 0
3 11 -22 25 32 -34 -37 38 39 0
3 11 -22 25 32 -34 -37 -38 -39 0
3 11 -22 25 -32 34 37 38 -39 0
3 11 -22 25 -32 34 37 -38 39 0
3 11 -22 25 -32 34 -37 38 39 0
3 11 -22 25 -32 34 -37 -38 -39 0
3 11 -22 25 -32 -34 37 38 39 0
3 11 -22 25 -32 -34 37 -38 -39 0
3 11 -22 25 -32 -34 -37 38 -39 0
3 11 -22 25 -32 -34 -37 -38 39 0
3 11 -22 -25 32 34 37 38 -39 0
3 11 -22 -25 32 34 37 -38 39 0
3 11 -22 -25 32 34 -37 38 39 0
3 11 -22 -25 32 34 -37 -38 -39 0
3 11 -22 -25 32 -34 37 38 39 0
3 11 -22 -25 32 -34 37 -38 -39 0
3 11 -22 -25 32 -34 -37 38 -39 0
3 11 -22 -25 32 -34 -37 -38 39 0
3 11 -22 -25 -32 34 37 38 39 0
3 11 -22 -25 -32 34 37 -38 -39 0
3 11 -22 -25 -32 34 -37 38 -39 0
3 11 -22 -25 -32 34 -37 -38 39 0
3 11 -22 -25 -32 -34 37 38 -39 0
3 11 -22 -25 -32 -34 37 -38 39 0
3 11 -22 -25 -32 -34 -37 38 39 0
3 11 -22 -25 -32 -34 -37 -38 -39 0
3 -11 22 25 32 34 37 38 39 0
3 -11 22 25 32 34 37 -38 -39 0
3 -11 22 25 32 34 -37 38 -39 0
3 -11 22 25 32 34 -37 -38 39 0
3 -11 22 25 32 -34 37 38 -39 0
3 -11 22 25 32 -34 37 -38 39 0
3 -11 22 25 32 -34 -37 38 39 0
3 -11 22 25 32 -34 -37 -38 -39 0
3 -11 22 25 -32 34 37 38 -39 0
3 -11 22 25 -32 34 37 -38 39 0
3 -11 22 25 -32 34 -37 38 39 0
3 -11 22 25 -32 34 -37 -38 -39 0
3 -11 22 25 -32 -34 37 38 39 0
3 -11 22 25 -32 -34 37 -38 -39 0
3 -11 22 25 -32 -34 -37 38 -39 0
3 -11 22 25 -32 -34 -37 -38 39 0
3 -11 22 -25 32 34 37 38 -39 0
3 -11 22 -25 32 34 37 -38 39 0
3 -11 22 -25 32 34 -37 38 39 0
3 -11 22 -25 32 34 -37 -38 -39 0
3 -11 22 -25 32 -34 37 38 39 0
3 -11 22 -25 32 -34 37 -38 -39 0
3 -11 22 -25 32 -34 -37 38 -39 0
3 -11 22 -25 32 -34 -37 -38 39 0
3 -11 22 -25 -32 34 37 38 39 0
3 -11 22 -25 -32 34 37 -38 -39 0
3 -11 22 -25 -32 34 -37 38 -39 0
3 -11 22 -25 -32 34 -37 -38 39 0
3 -11 22 -25 -32 -34 37 38 -39 0
3 -11 22 -25 -32 -34 37 -38 39 0
3 -11 22 -25 -32 -34 -37 38 39 0
3 -11 22 -25 -32 -34 -37 -38 -39 0
3 -11 -22 25 32 34 37 38 -39 0
3 -11 -22 25 32 34 37 -38 39 0
3 -11 -22 25 32 34 -37 38 39 0
3 -11 -22 25 32 34 -37 -38 -39 0
3 -11 -22 25 32 -34 37 38 39 0
3 -11 -22 25 32 -34 37 -38 -39 0
3 -11 -22 25 32 -34 -37 38 -39 0
3 -11 -22 25 32 -34 -37 -38 39 0
3 -11 -22 25 -32 34 37 38 39 0
3 -11 -22 25 -32 34 37 -38 -39 0
3 -11 -22 25 -32 34 -37 38 -39 0
3 -11 -22 25 -32 34 -37 -38 39 0
3 -11 -22 25 -32 -34 37 38 -39 0
3 -11 -22 25 -32 -34 37 -38 39 0
3 -11 -22 25 -32 -34 -37 38 39 0
3 -11 -22 25 -32 -34 -37 -38 -39 0
3 -11 -22 -25 32 34 37 38 39 0
3 -11 -22 -25 32 34 37 -38 -39 0
3 -11 -22 -25 32 34 -37 38 -39 0
3 -11 -22 -25 32 34 -37 -38 39 0
3 -11 -22 -25 32 -34 37 38 -39 0
3 -11 -22 -25 32 -34 37 -38 39 0
3 -11 -22 -25 32 -34 -37 38 39 0
3 -11 -22 -25 32 -34 -37 -38 -39 0
3 -11 -22 -25 -32 34 37 38 -39 0
3 -11 -22 -25 -32 34 37 -38 39 0
3 -11 -22 -25 -32 34 -37 38 39 0
3 -11 -22 -25 -32 34 -37 -38 -39 0
3 -11 -22 -25 -32 -34 37 38 39 0
3 -11 -22 -25 -32 -34 37 -38 -39 0
3 -11 -22 -25 -32 -34 -37 38 -39 0
3 -11 -22 -25 -32 -34 -37 -38 39 0
-3 11 22 25 32 34 37 38 39 0
-3 11 22 25 32 34 37 -38 -39 0
-3 11 22 25 32 34 -37 38 -39 0
-3 11 22 25 32 34 -37 -38 39 0
-3 11 22 25 32 -34 37 38 -39 0
-3 11 22 25 32 -34 37 -38 39 0
-3 11 22 25 32 -34 -37 38 39 0
-3 11 22 25 32 -34 -37 -38 -39 0
-3 11 22 25 -32 34 37 38 -39 0
-3 11 22 25 -32 34 37 -38 39 0
-3 11 22 25 -32 34 -37 38 39 0
-3 11 22 25 -32 34 -37 -38 -39 0
-3 11 22 25 -32 -34 37 38 39 0
-3 11 22 25 -32 -34 37 -38 -39 0
-3 11 22 25 -32 -34 -37 38 -39 0
-3 11 22 25 -32 -34 -37 -38 39 0
-3 11 22 -25 32 34 37 38 -39 0
-3 11 22 -25 32 34 37 -38 39 0
-3 11 22 -25 32 34 -37 38 39 0
-3 11 22 -25 32 34 -37 -38 -39 0
-3 11 22 -25 32 -34 37 38 39 0
-3 11 22 -25 32 -34 37 -38 -39 0
-3 11 22 -25 32 -34 -37 38 -39 0
-3 11 22 -25 32 -34 -37 -38 39 0
-3 11 22 -25 -32 34 37 38 39 0
-3 11 22 -25 -32 34 37 -38 -39 0
-3 11 22 -25 -32 34 -37 38 -39 0
-3 11 22 -25 -32 34 -37 -38 39 0
-3 11 22 -25 -32 -34 37 38 -39 0
-3 11 22 -25 -32 -34 37 -38 39 0
-3 11 22 -25 -32 -34 -37 38 39 0
-3 11 22 -25 -32 -34 -37 -38 -39 0
-3 11 -22 25 32 34 37 38 -39 0
-3 11 -22 25 32 34 37 -38 39 0
-3 11 -22 25 32 34 -37 38 39 0
-3 11 -22 25 32 34 -37 -38 -39 0
-3 11 -22 25 32 -34 37 38 39 0
-3 11 -22 25 32 -34 37 -38 -39 0
-3 11 -22 25 32 -34 -37 38 -39 0
-3 11 -22 25 32 -34 -37 -38 39 0
-3 11 -22 25 -32 34 37 38 39 0
-3 11 -22 25 -32 34 37 -38 -39 0
-3 11 -22 25 -32 34 -37 38 -39 0
-3 11 -22 25 -32 34 -37 -38 39 0
-3 11 -22 25 -32 -34 37 38 -39 0
-3 11 -22 25 -32 -34 37 -38 39 0
-3 11 -22 25 -32 -34 -37 38 39 0
-3 11 -22 25 -32 -34 -37 -38 -39 0
-3 11 -22 -25 32 34 37 38 39 0
-3 11 -22 -25 32 34 37 -38 -39 0
-3 11 -22 -25 32 34 -37 38 -39 0
-3 11 -22 -25 32 34 -37 -38 39 0
-3 11 -22 -25 32 -34 37 38 -39 0
-3 11 -22 -25 32 -34 37 -38 39 0
-3 11 -22 -25 32 -34 -37 38 39 0
-3 11 -22 -25 32 -34 -37 -38 -39 0
-3 11 -22 -25 -32 34 37 38 -39 0
-3 11 -22 -25 -32 34 37 -38 39 0
-3 11 -22 -25 -32 34 -37 38 39 0
-3 11 -22 -25 -32 34 -37 -38 -39 0
-3 11 -22 -25 -32 -34 37 38 39 0
-3 11 -22 -25 -32 -34 37 -38 -39 0
-3 11 -22 -25 -32 -34 -37 38 -39 0
-3 11 -22 -25 -32 -34 -37 -38 39 0
-3 -11 22 25 32 34 37 38 -39 0
-3 -11 22 25 32 34 37 -38 39 0
-3 -11 22 25 32 34 -37 38 39 0
-3 -11 22 25 32 34 -37 -38 -39 0
-3 -11 22 25 32 -34 37 38 39 0
-3 -11 22 25 32 -34 37 -38 -39 0
-3 -11 22 25 32 -34 -37 38 -39 0
-3 -11 22 25 32 -34 -37 -38 39 0
-3 -11 22 25 -32 34 37 38 39 0
-3 -11 22 25 -32 34 37 -38 -39 0
-3 -11 22 25 -32 34 -37 38 -39 0
-3 -11 22 25 -32 34 -37 -38 39 0
-3 -11 22 25 -32 -34 37 38 -39 0
-3 -11 22 25 -32 -34 37 -38 39 0
-3 -11 22 25 -32 -34 -37 38 39 0
-3 -11 22 25 -32 -34 -37 -38 -39 0
-3 -11 22 -25 32 34 37 38 39 0
-3 -11 22 -25 32 34 37 -38 -39 0
-3 -11 22 -25 32 34 -37 38 -39 0
-3 -11 22 -25 32 34 -37 -38 39 0
-3 -11 22 -25 32 -34 37 38 -39 0
-3 -11 22 -25 32 -34 37 -38 39 0
-3 -11 22 -25 32 -34 -37 38 39 0
-3 -11 22 -25 32 -34 -37 -38 -39 0
-3 -11 22 -25 -32 34 37 38 -39 0
-3 -11 22 -25 -32 34 37 -38 39 0
-3 -11 22 -25 -32 34 -37 38 39 0
-3 -11 22 -25 -32 34 -37 -38 -39 0
-3 -11 22 -25 -32 -34 37 38 39 0
-3 -11 22 -25 -32 -34 37 -38 -39 0
-3 -11 22 -25 -32 -34 -37 38 -39 0
-3 -11 22 -25 -32 -34 -37 -38 39 0
-3 -11 -22 25 32 34 37 38 39 0
-3 -11 -22 25 32 34 37 -38 -39 0
-3 -11 -22 25 32 34 -37 38 -39 0
-3 -11 -22 25 32 34 -37 -38 39 0
-3 -11 -22 25 32 -34 37 38 -39 0
-3 -11 -22 25 32 -34 37 -38 39 0
-3 -11 -22 25 32 -34 -37 38 39 0
-3 -11 -22 25 32 -34 -37 -38 -39 0
-3 -11 -22 25 -32 34 37 38 -39 0
-3 -11 -22 25 -32 34 37 -38 39 0
-3 -11 -22 25 -32 34 -37 38 39 0
-3 -11 -22 25 -32 34 -37 -38 -39 0
-3 -11 -22 25 -32 -34 37 38 39 0
-3 -11 -22 25 -32 -34 37 -38 -39 0
-3 -11 -22 25 -32 -34 -37 38 -39 0
-3 -11 -22 25 -32 -34 -37 -38 39 0
-3 -11 -22 -25 32 34 37 38 -39 0
-3 -11 -22 -25 32 34 37 -38 39 0
-3 -11 -22 -25 32 34 -37 38 39 0
-3 -11 -22 -25 32 34 -37 -38 -39 0
-3 -11 -22 -25 32 -34 37 38 39 0
-3 -11 -22 -25 32 -34 37 -38 -39 0
-3 -11 -22 -25 32 -34 -37 38 -39 0
-3 -11 -22 -25 32 -34 -37 -38 39 0
-3 -11 -22 -25 -32 34 37 38 39 0
-3 -11 -22 -25 -32 34 37 -38 -39 0
-3 -11 -22 -25 -32 34 -37 38 -39 0
-3 -11 -22 -25 -32 34 -37 -38 39 0
-3 -11 -22 -25 -32 -34 37 38 -39 0
-3 -11 -22 -25 -32 -34 37 -38 39 0
-3 -11 -22 -25 -32 -34 -37 38 39 0
-3 -11 -22 -25 -32 -34 -37 -38 -39 0
6 12 30 -40 0
6 12 -30 40 0
6 -12 30 40 0
6 -12 -30 -40 0
-6 12 30 40 0
-6 12 -30 -40 0
-6 -12 30 -40 0
-6 -12 -30 40 0
13 31 35 -37 0
13 31 -35 37 0
13 -31 35 37 0
13 -31 -35 -37 0
-13 31 35 37 0
-13 31 -35 -37 0
-13 -31 35 -37 0
-13 -31 -35 37 0
7 17 19 33 -40 0
7 17 19 -33 40 0
7 17 -19 33 40 0
7 17 -19 -33 -40 0
7 -17 19 33 40 0
7 -17 19 -33 -40 0
7 -17 -19 33 -40 0
7 -17 -19 -33 40 0
-7 17 19 33 40 0
-7 17 19 -33 -40 0
-7 17 -19 33 -40 0
-7 17 -19 -33 40 0
-7 -17 19 33 -40 0
-7 -17 19 -33 40 0
-7 -17 -19 33 40 0
-7 -17 -19 -33 -40 0
14 23 36 -38 0
14 23 -36 38 0
14 -23 36 38 0
14 -23 -36 -38 0
-14 23 36 38 0
-14 23 -36 -38 0
-14 -23 36 -38 0
-14 -23 -36 38 0
4 8 20 -27 0
4 8 -20 27 0
4 -8 20 27 0
4 -8 -20 -27 0
-4 8 20 27 0
-4 8 -20 -27 0
-4 -8 20 -27 0
-4 -8 -20 27 0
26 -39 0
-26 39 0